68 30 
23 92 
57 44 
76 79 
41 14 
84 73 
8 9 
48 34 
23 97 
92 34 
57 23 
80 19 
6 66 
9 45 
96 26 
41 65 
9 65 
57 18 
9 86 
97 2 
0 81 
27 8 
42 76 
43 66 
25 87 
0 35 
10 32 
6 17 
50 15 
62 46 
94 3 
63 55 
20 73 
73 29 
59 22 
84 11 
3 11 
71 97 
39 66 
63 65 
54 15 
0 16 
47 6 
33 97 
74 47 
96 20 
3 59 
75 23 
32 48 
5 43 
